COLUMNS

passenger_count
pickup_ID
dropoff_ID
request_time_sec
pickup_district
dropoff_district
LDuals
IDuals
vehicle_ID
pick_position
drop_position

REQUESTS_INFO
1      217       527       29227     87        52        109       109       177       1         3         
1      726       1517      29226     290       296       113       113       258       1         3         
2      840       504       29220     290       52        156.25    156.25    275       1         4         
1      886       421       29151     290       168       273.5     273.5     296       1         2         
1      909       925       29163     290       290       268.5     268.5     444       1         2         
3      888       779       29065     290       131       373.5     373.5     502       1         2         
1      817       193       29245     290       266       126.25    126.25    505       1         4         
2      909       794       29203     290       290       228.5     228.5     556       1         2         
2      888       1011      29108     290       84        330.5     330.5     611       1         2         
3      887       969       29102     290       290       317.5     317.5     661       1         2         
2      929       887       29190     290       290       254.5     254.5     687       1         2         
1      348       521       29202     299       52        188       188       706       1         3         
3      1401      1285      29235     129       129       132       132       713       1         2         
1      949       936       29228     290       291       190       190       734       1         3         
1      906       719       29163     290       189       249.5     249.5     740       1         3         
3      813       372       29243     290       119       144       144       821       1         2         
1      814       745       29227     290       290       135       135       827       1         2         
1      923       462       29241     290       189       166       166       838       1         3         
1      792       969       29246     290       290       112       112       846       1         5         
1      216       604       29225     178       189       143       143       905       1         3         
1      961       694       29222     291       189       133       133       919       1         2         
1      924       601       29196     290       189       182       182       1127      1         2         
1      929       938       29228     290       291       212.5     212.5     1130      1         2         
1      973       627       29156     84        189       318       318       1167      1         3         
1      865       507       29220     290       189       173.5     173.5     1169      1         2         
2      887       924       29224     290       290       195.5     195.5     1174      1         2         
1      908       925       29224     290       290       223.5     223.5     1196      1         2         
1      885       884       29241     290       290       132.5     132.5     1252      1         2         
1      456       357       29240     52        277       127       127       1253      1         2         
1      870       604       29202     291       189       153       153       1255      1         3         
1      928       1218      29219     290       84        245.5     245.5     1335      1         2         
1      1047      602       29248     291       189       96        96        1351      1         4         
3      871       1023      29202     291       291       160       160       1373      1         2         
1      928       535       29221     290       189       240.5     240.5     1387      1         2         
2      929       531       29249     290       189       183       183       1392      1         3         
1      366       720       29202     299       290       151       151       1394      1         3         
1      598       416       29234     189       100       134       134       1434      1         3         
3      417       391       29245     100       52        94        94        1457      1         2         
1      739       848       29250     189       291       0         0         0         0         0         
1      881       1032      29250     290       84        0         0         0         0         0         
1      860       947       29250     290       290       0         0         0         0         0         
1      155       858       29250     286       290       0         0         0         0         0         
3      364       376       29251     299       168       0         0         0         0         0         
1      189       652       29251     286       189       0         0         0         0         0         
1      627       579       29251     189       189       0         0         0         0         0         
1      578       372       29251     189       119       0         0         0         0         0         
1      233       604       29251     206       189       0         0         0         0         0         
3      504       694       29252     52        189       0         0         0         0         0         
2      504       694       29252     52        189       0         0         0         0         0         
1      442       355       29252     168       119       0         0         0         0         0         
1      723       652       29252     290       189       0         0         0         0         0         
1      248       647       29252     266       280       0         0         0         0         0         
1      937       840       29252     291       290       0         0         0         0         0         
1      527       824       29252     52        291       0         0         0         0         0         
1      794       604       29253     290       189       0         0         0         0         0         
1      556       388       29253     199       299       0         0         0         0         0         
1      667       479       29254     131       52        0         0         0         0         0         
1      793       556       29254     290       199       0         0         0         0         0         
1      523       526       29254     52        52        0         0         0         0         0         
1      824       720       29254     291       290       0         0         0         0         0         
2      549       738       29254     52        189       0         0         0         0         0         
3      549       738       29254     52        189       0         0         0         0         0         
1      864       530       29255     290       189       0         0         0         0         0         
2      596       574       29255     131       189       0         0         0         0         0         
1      531       604       29255     189       189       0         0         0         0         0         
1      598       697       29255     189       189       0         0         0         0         0         
1      549       602       29255     52        189       0         0         0         0         0         
1      369       504       29256     52        52        0         0         0         0         0         
2      560       793       29256     189       290       0         0         0         0         0         
3      560       793       29256     189       290       0         0         0         0         0         
1      512       561       29256     199       189       0         0         0         0         0         
1      882       604       29256     290       189       0         0         0         0         0         
1      527       603       29256     52        189       0         0         0         0         0         
1      724       536       29256     290       189       0         0         0         0         0         
3      297       390       29257     277       52        0         0         0         0         0         
2      297       390       29257     277       52        0         0         0         0         0         
1      940       768       29257     291       290       0         0         0         0         0         
1      484       555       29257     189       199       0         0         0         0         0         
2      546       232       29257     52        266       0         0         0         0         0         
1      99        173       29258     286       286       0         0         0         0         0         
2      1128      910       29258     291       290       0         0         0         0         0         
3      663       938       29259     131       291       0         0         0         0         0         
1      1196      536       29259     129       189       0         0         0         0         0         
1      701       556       29259     290       199       0         0         0         0         0         
1      983       694       29259     291       189       0         0         0         0         0         
1      981       120       29259     291       57        0         0         0         0         0         
1      526       593       29260     52        52        0         0         0         0         0         
1      466       581       29260     199       189       0         0         0         0         0         
2      345       533       29261     299       199       0         0         0         0         0         
1      1001      827       29261     291       291       0         0         0         0         0         
3      937       718       29261     291       189       0         0         0         0         0         
1      991       371       29261     290       52        0         0         0         0         0         
3      937       718       29261     291       189       0         0         0         0         0         
1      527       555       29262     52        199       0         0         0         0         0         
1      620       648       29262     131       189       0         0         0         0         0         
1      840       35        29262     290       98        0         0         0         0         0         
1      508       552       29262     199       189       0         0         0         0         0         
1      487       375       29262     199       119       0         0         0         0         0         
3      418       721       29263     168       290       0         0         0         0         0         
1      718       875       29263     189       291       0         0         0         0         0         
2      418       721       29263     168       290       0         0         0         0         0         
1      1245      1046      29264     192       291       0         0         0         0         0         
1      527       728       29264     52        290       0         0         0         0         0         
1      1324      1211      29264     129       129       0         0         0         0         0         
1      837       116       29264     290       9         0         0         0         0         0         
2      345       369       29264     299       52        0         0         0         0         0         
3      345       369       29264     299       52        0         0         0         0         0         
1      772       724       29265     290       290       0         0         0         0         0         
3      269       949       29265     127       290       0         0         0         0         0         
1      258       670       29265     87        280       0         0         0         0         0         
1      292       416       29266     87        100       0         0         0         0         0         
1      894       670       29266     291       280       0         0         0         0         0         
1      573       600       29266     189       280       0         0         0         0         0         
2      419       507       29266     168       189       0         0         0         0         0         
1      527       390       29266     52        52        0         0         0         0         0         
1      350       574       29266     127       189       0         0         0         0         0         
2      972       628       29266     290       189       0         0         0         0         0         
1      817       397       29266     290       168       0         0         0         0         0         
1      992       1016      29267     290       84        0         0         0         0         0         
1      466       627       29267     199       189       0         0         0         0         0         
1      265       116       29267     299       9         0         0         0         0         0         
1      487       355       29267     199       119       0         0         0         0         0         
1      596       695       29268     131       189       0         0         0         0         0         
2      549       593       29268     52        52        0         0         0         0         0         
1      34        48        29268     98        98        0         0         0         0         0         
1      269       117       29268     127       286       0         0         0         0         0         
1      608       212       29268     189       266       0         0         0         0         0         
1      836       583       29268     290       189       0         0         0         0         0         
2      377       748       29268     168       290       0         0         0         0         0         
1      189       579       29269     286       189       0         0         0         0         0         
1      501       414       29269     52        100       0         0         0         0         0         
1      269       395       29270     127       100       0         0         0         0         0         
1      913       621       29270     291       280       0         0         0         0         0         
1      915       116       29270     291       9         0         0         0         0         0         
2      115       138       29271     9         57        0         0         0         0         0         
1      349       534       29271     127       199       0         0         0         0         0         
1      859       393       29271     290       52        0         0         0         0         0         
1      364       304       29271     299       299       0         0         0         0         0         
1      771       35        29272     290       98        0         0         0         0         0         
2      374       35        29272     119       98        0         0         0         0         0         
2      484       228       29272     189       266       0         0         0         0         0         
1      354       575       29272     119       189       0         0         0         0         0         
1      768       769       29273     290       290       0         0         0         0         0         
1      1489      697       29273     296       189       0         0         0         0         0         
1      622       552       29273     280       189       0         0         0         0         0         
1      152       373       29273     9         119       0         0         0         0         0         
1      813       646       29274     290       280       0         0         0         0         0         
3      1000      732       29274     291       131       0         0         0         0         0         
3      1000      732       29274     291       131       0         0         0         0         0         
1      399       116       29274     168       9         0         0         0         0         0         
1      766       858       29274     290       290       0         0         0         0         0         
2      951       864       29274     290       290       0         0         0         0         0         
1      928       925       29275     290       290       0         0         0         0         0         
1      419       352       29276     168       119       0         0         0         0         0         
1      511       374       29276     199       119       0         0         0         0         0         
1      675       669       29276     189       280       0         0         0         0         0         
1      663       669       29276     131       280       0         0         0         0         0         
1      441       580       29276     168       189       0         0         0         0         0         
2      370       413       29276     52        52        0         0         0         0         0         
3      815       724       29276     290       290       0         0         0         0         0         
3      815       724       29276     290       290       0         0         0         0         0         
1      735       578       29277     131       189       0         0         0         0         0         
1      325       727       29277     299       290       0         0         0         0         0         
1      857       528       29277     290       52        0         0         0         0         0         
1      214       268       29277     207       299       0         0         0         0         0         
1      233       399       29277     206       168       0         0         0         0         0         
1      598       717       29277     189       189       0         0         0         0         0         
1      948       903       29278     290       290       0         0         0         0         0         
1      886       1032      29278     290       84        0         0         0         0         0         
1      439       398       29278     189       168       0         0         0         0         0         
1      1076      1054      29278     84        84        0         0         0         0         0         
1      527       390       29278     52        52        0         0         0         0         0         
1      1187      651       29278     291       189       0         0         0         0         0         
1      268       698       29279     299       189       0         0         0         0         0         
1      733       627       29279     131       189       0         0         0         0         0         
3      478       285       29279     52        299       0         0         0         0         0         
3      478       285       29279     52        299       0         0         0         0         0         
1      527       399       29279     52        168       0         0         0         0         0         
1      848       647       29279     291       280       0         0         0         0         0         
1      652       189       29279     189       286       0         0         0         0         0         
1      905       748       29279     290       290       0         0         0         0         0         
